## here we give values to our data

param n:= 2;
param t:= 40;

# the format for multi-valued parameters is 
# (id value)+
param p:= 1 10 2 15;
param r:= 1 40 2 30;
# you can represent the data this way
param m:= 
	1 1000 
	2 860;
